4 
5  01 31 46 
6  01 08 16 24 31 39 46 54 
7  01 09 16 24 31 39 46 54 
8  01 09 16 24 31 39 46 54 
9  01 09 16 24 31 39 46 54 
10  01 09 16 24 31 39 46 54 
11  01 09 16 24 31 39 46 54 
12  01 09 16 24 31 39 46 54 
13  01 09 16 24 31 39 46 54 
14  01 09 16 24 31 39 46 54 
15  01 09 16 24 31 39 46 54 
16  01 09 16 24 31 39 46 54 
17  01 09 16 24 31 39 46 54 
18  01 09 16 24 31 39 46 54 
19  01 09 16 24 31 39 46 54 
20  01 09 16 27 42 57 
21  12 27 42 56 
22  11 22 37 52 
23  07 22 
0 
